projected/problems_b25_r0_d7_m100_s666/_DIMACS/b25_d7_r0_s666_088.cnf
p cnf 259 438 24
c p show 1 2 3 4 5 6 7 8 9 10 11 12 13 14 15 16 17 18 19 20 21 22 23 24
-225 -14 8 0
-226 2 15 0
-227 226 225 0
-228 -13 0
-228 -15 0
-229 9 0
-229 17 0
-230 229 0
-230 228 0
-231 230 0
-231 227 0
-232 -18 0
-232 8 0
-233 -2 12 0
-234 233 0
-234 232 0
-235 13 7 0
-236 -7 0
-236 -15 0
-237 236 235 0
-238 237 0
-238 234 0
-239 238 231 0
-240 18 -8 0
-241 2 0
-241 -12 0
-242 241 240 0
-243 -13 0
-243 -7 0
-244 7 15 0
-245 244 0
-245 243 0
-246 245 242 0
-247 14 0
-247 -8 0
-248 -2 0
-248 -15 0
-249 248 0
-249 247 0
-250 13 15 0
-251 -9 -17 0
-252 251 250 0
-253 252 249 0
-254 253 246 0
-255 254 0
-255 239 0
-256 16 0
-256 -22 0
-257 20 -12 0
-258 257 256 0
-259 6 3 0
-25 -8 12 0
-26 -12 8 0
-27 26 0
-27 25 0
-28 27 259 0
-29 28 258 0
-30 21 -18 0
-31 24 0
-31 17 0
-32 31 30 0
-113 24 -15 0
-33 -20 0
-33 9 0
-34 33 113 0
-35 34 0
-35 32 0
-36 35 29 0
-37 36 255 0
-38 -16 22 0
-39 -20 0
-39 12 0
-40 39 0
-40 38 0
-41 -6 0
-41 -3 0
-42 8 0
-42 -12 0
-43 12 0
-43 -8 0
-44 43 42 0
-45 44 0
-45 41 0
-46 45 0
-46 40 0
-47 -21 0
-47 18 0
-48 -24 -17 0
-49 48 0
-49 47 0
-50 -24 0
-50 15 0
-51 20 -9 0
-52 51 0
-52 50 0
-53 52 49 0
-54 53 0
-54 46 0
-55 246 0
-55 253 0
-56 231 0
-56 238 0
-57 56 55 0
-58 57 54 0
-59 58 0
-59 37 0
-60 15 0
-60 7 0
-61 60 236 0
-62 8 11 0
-63 62 61 0
-64 -18 -19 0
-65 23 0
-65 -19 0
-66 65 64 0
-67 66 63 0
-68 20 -24 0
-69 8 23 0
-70 69 68 0
-71 -13 -5 0
-72 -16 0
-72 4 0
-73 72 71 0
-74 73 0
-74 70 0
-75 74 67 0
-76 -3 -8 0
-77 -22 -12 0
-78 77 76 0
-79 -9 0
-79 -6 0
-80 13 0
-80 -4 0
-81 80 0
-81 79 0
-82 81 0
-82 78 0
-83 17 0
-83 -15 0
-84 15 0
-84 -17 0
-85 84 83 0
-86 13 0
-86 -10 0
-87 86 85 0
-88 3 0
-88 -9 0
-89 2 -22 0
-90 89 0
-90 88 0
-91 90 0
-91 87 0
-92 -3 9 0
-93 -2 0
-93 22 0
-94 93 92 0
-95 -17 15 0
-96 -15 17 0
-97 96 0
-97 95 0
-98 -13 10 0
-99 98 0
-99 97 0
-100 99 0
-100 94 0
-101 100 91 0
-102 101 82 0
-103 102 75 0
-104 103 0
-104 59 0
-105 1 0
-105 10 0
-106 -16 -24 0
-107 106 0
-107 105 0
-108 16 0
-108 24 0
-109 -1 -10 0
-110 109 0
-110 108 0
-111 110 107 0
-112 -6 -11 0
-114 -1 -8 0
-115 114 0
-115 112 0
-116 115 111 0
-117 -12 0
-117 -10 0
-118 10 0
-118 12 0
-119 118 117 0
-120 -24 0
-120 11 0
-121 120 119 0
-122 -20 -2 0
-123 9 4 0
-124 123 0
-124 122 0
-125 124 121 0
-126 125 116 0
-127 -22 17 0
-128 -22 -24 0
-129 128 0
-129 127 0
-130 22 0
-130 24 0
-131 22 0
-131 -17 0
-132 131 0
-132 130 0
-133 132 129 0
-134 -23 0
-134 -18 0
-135 14 0
-135 21 0
-136 135 0
-136 134 0
-137 136 133 0
-138 24 0
-138 13 0
-139 -13 0
-139 -24 0
-140 139 138 0
-141 20 24 0
-142 141 0
-142 140 0
-143 20 -15 0
-144 -2 0
-145 144 0
-145 143 0
-146 2 0
-147 -20 0
-147 15 0
-148 147 0
-148 146 0
-149 148 145 0
-150 149 0
-150 142 0
-151 150 137 0
-152 151 126 0
-153 20 0
-153 -4 0
-154 8 0
-154 6 0
-155 154 153 0
-156 -21 0
-156 -2 0
-157 1 0
-157 -3 0
-158 157 0
-158 156 0
-159 158 0
-159 155 0
-160 6 0
-160 -2 0
-161 -15 -8 0
-162 161 160 0
-163 15 0
-163 8 0
-164 -6 2 0
-165 164 163 0
-166 165 0
-166 162 0
-167 19 17 0
-168 -19 0
-168 2 0
-169 168 167 0
-170 169 166 0
-171 170 159 0
-172 4 2 0
-173 -2 -4 0
-174 173 0
-174 172 0
-175 1 -12 0
-176 175 0
-176 174 0
-177 -1 0
-177 12 0
-178 -4 0
-178 -2 0
-179 2 0
-179 4 0
-180 179 178 0
-181 180 0
-181 177 0
-182 181 176 0
-183 24 0
-183 -2 0
-184 2 0
-184 -24 0
-185 184 183 0
-186 -23 5 0
-187 186 185 0
-188 187 182 0
-189 -24 2 0
-190 -2 24 0
-191 190 0
-191 189 0
-192 23 0
-192 -5 0
-193 192 0
-193 191 0
-194 177 180 0
-195 174 175 0
-196 195 0
-196 194 0
-197 196 193 0
-198 197 0
-198 188 0
-199 17 19 0
-200 8 -11 0
-201 200 199 0
-202 -20 0
-202 -12 0
-203 -8 1 0
-204 -1 8 0
-205 204 0
-205 203 0
-206 205 0
-206 202 0
-207 206 201 0
-208 207 0
-208 198 0
-209 -17 0
-209 -19 0
-210 -8 0
-210 11 0
-211 210 0
-211 209 0
-212 20 12 0
-213 8 0
-213 -1 0
-214 1 0
-214 -8 0
-215 214 213 0
-216 215 212 0
-217 216 0
-217 211 0
-218 193 0
-218 196 0
-219 182 0
-219 187 0
-220 219 218 0
-221 220 0
-221 217 0
-222 221 208 0
-223 222 171 0
-224 223 0
-224 152 0
224 104 0
-256 -38 0
-38 -256 0
-39 -257 0
-40 -258 0
-258 -40 0
-41 -259 0
-27 -44 0
-44 -27 0
-45 -28 0
-28 -45 0
-29 -46 0
-47 -30 0
-31 -48 0
-48 -31 0
-49 -32 0
-32 -49 0
-113 -50 0
-33 -51 0
-34 -52 0
-35 -53 0
-36 -54 0
-54 -36 0
-240 -232 0
-232 -240 0
-233 -241 0
-234 -242 0
-242 -234 0
-243 -235 0
-244 -236 0
-245 -237 0
-246 -238 0
-225 -247 0
-247 -225 0
-226 -248 0
-248 -226 0
-249 -227 0
-227 -249 0
-228 -250 0
-250 -228 0
-251 -229 0
-252 -230 0
-230 -252 0
-231 -253 0
-255 -57 0
-88 -92 0
-93 -89 0
-89 -93 0
-90 -94 0
-97 -85 0
-85 -97 0
-86 -98 0
-87 -99 0
-99 -87 0
-108 -106 0
-106 -108 0
-105 -109 0
-109 -105 0
-130 -128 0
-128 -130 0
-127 -131 0
-131 -127 0
-144 -146 0
-143 -147 0
-147 -143 0
-161 -163 0
-163 -161 0
-164 -160 0
-160 -164 0
-199 -209 0
-210 -200 0
-200 -210 0
-201 -211 0
-202 -212 0
-205 -215 0
-206 -216 0
-207 -217 0
-191 -185 0
-186 -192 0
-192 -186 0
-193 -187 0
-177 -175 0
-175 -177 0
-174 -180 0
-180 -174 0
-196 -182 0
-182 -196 0
-198 -220 0
-220 -198 0
