projected/problems_b25_r0_d7_m100_s666/b25_d7_r0_s666_088.smt2
(set-logic QF_UF)
(declare-fun A0 () Bool)
(declare-fun A1 () Bool)
(declare-fun A2 () Bool)
(declare-fun A3 () Bool)
(declare-fun A4 () Bool)
(declare-fun A5 () Bool)
(declare-fun A6 () Bool)
(declare-fun A7 () Bool)
(declare-fun A8 () Bool)
(declare-fun A9 () Bool)
(declare-fun A10 () Bool)
(declare-fun A11 () Bool)
(declare-fun A12 () Bool)
(declare-fun A14 () Bool)
(declare-fun A15 () Bool)
(declare-fun A16 () Bool)
(declare-fun A17 () Bool)
(declare-fun A18 () Bool)
(declare-fun A19 () Bool)
(declare-fun A20 () Bool)
(declare-fun A21 () Bool)
(declare-fun A22 () Bool)
(declare-fun A23 () Bool)
(declare-fun A24 () Bool)
(assert (let ((.def_0 (not A22))) (let ((.def_1 (and A16 .def_0))) (let ((.def_2 (not .def_1))) (let ((.def_3 (not A20))) (let ((.def_4 (and .def_3 A11))) (let ((.def_5 (and .def_4 .def_2))) (let ((.def_6 (not .def_5))) (let ((.def_7 (not A2))) (let ((.def_8 (not A5))) (let ((.def_9 (and .def_8 .def_7))) (let ((.def_10 (= A11 A7))) (let ((.def_11 (not .def_10))) (let ((.def_12 (and .def_11 .def_9))) (let ((.def_13 (not .def_12))) (let ((.def_14 (or .def_13 .def_6))) (let ((.def_15 (not A21))) (let ((.def_16 (and .def_15 A18))) (let ((.def_17 (and A24 A17))) (let ((.def_18 (not .def_17))) (let ((.def_19 (and .def_18 .def_16))) (let ((.def_20 (not .def_19))) (let ((.def_21 (not A15))) (let ((.def_22 (or A24 .def_21))) (let ((.def_23 (and .def_3 A8))) (let ((.def_24 (or .def_23 .def_22))) (let ((.def_25 (and .def_24 .def_20))) (let ((.def_26 (or .def_25 .def_14))) (let ((.def_27 (not .def_26))) (let ((.def_28 (not A7))) (let ((.def_29 (or A18 .def_28))) (let ((.def_30 (not .def_29))) (let ((.def_31 (not A1))) (let ((.def_32 (or .def_31 A11))) (let ((.def_33 (and .def_32 .def_30))) (let ((.def_34 (not .def_33))) (let ((.def_35 (not A6))) (let ((.def_36 (not A12))) (let ((.def_37 (and .def_36 .def_35))) (let ((.def_38 (or A6 A15))) (let ((.def_39 (and .def_38 .def_37))) (let ((.def_40 (or .def_39 .def_34))) (let ((.def_41 (not A14))) (let ((.def_42 (or .def_41 A7))) (let ((.def_43 (not .def_42))) (let ((.def_44 (or A1 A15))) (let ((.def_45 (not .def_44))) (let ((.def_46 (and .def_45 .def_43))) (let ((.def_47 (not .def_46))) (let ((.def_48 (and .def_36 .def_21))) (let ((.def_49 (not .def_48))) (let ((.def_50 (not A17))) (let ((.def_51 (not A8))) (let ((.def_52 (or .def_51 .def_50))) (let ((.def_53 (or .def_52 .def_49))) (let ((.def_54 (not .def_53))) (let ((.def_55 (and .def_54 .def_47))) (let ((.def_56 (= .def_55 .def_40))) (let ((.def_57 (= .def_56 .def_27))) (let ((.def_58 (= A15 .def_35))) (let ((.def_59 (or A7 A10))) (let ((.def_60 (not .def_59))) (let ((.def_61 (and .def_60 .def_58))) (let ((.def_62 (not .def_61))) (let ((.def_63 (and A18 A19))) (let ((.def_64 (not A19))) (let ((.def_65 (and A23 .def_64))) (let ((.def_66 (not .def_65))) (let ((.def_67 (and .def_66 .def_63))) (let ((.def_68 (not .def_67))) (let ((.def_69 (or .def_68 .def_62))) (let ((.def_70 (not A24))) (let ((.def_71 (or A20 .def_70))) (let ((.def_72 (not A23))) (let ((.def_73 (and .def_28 .def_72))) (let ((.def_74 (not .def_73))) (let ((.def_75 (or .def_74 .def_71))) (let ((.def_76 (not .def_75))) (let ((.def_77 (not A4))) (let ((.def_78 (or .def_36 .def_77))) (let ((.def_79 (not .def_78))) (let ((.def_80 (not A16))) (let ((.def_81 (and .def_80 A3))) (let ((.def_82 (not .def_81))) (let ((.def_83 (and .def_82 .def_79))) (let ((.def_84 (or .def_83 .def_76))) (let ((.def_85 (not .def_84))) (let ((.def_86 (or .def_85 .def_69))) (let ((.def_87 (not .def_86))) (let ((.def_88 (or .def_7 .def_28))) (let ((.def_89 (not .def_88))) (let ((.def_90 (not A11))) (let ((.def_91 (or .def_0 .def_90))) (let ((.def_92 (not .def_91))) (let ((.def_93 (and .def_92 .def_89))) (let ((.def_94 (and .def_51 .def_8))) (let ((.def_95 (not .def_94))) (let ((.def_96 (not A3))) (let ((.def_97 (and A12 .def_96))) (let ((.def_98 (not .def_97))) (let ((.def_99 (or .def_98 .def_95))) (let ((.def_100 (or .def_99 .def_93))) (let ((.def_101 (and A2 .def_51))) (let ((.def_102 (and .def_31 A22))) (let ((.def_103 (not .def_102))) (let ((.def_104 (and .def_103 .def_101))) (let ((.def_105 (= A15 A17))) (let ((.def_106 (not .def_105))) (let ((.def_107 (not A9))) (let ((.def_108 (and A12 .def_107))) (let ((.def_109 (or .def_108 .def_106))) (let ((.def_110 (not .def_109))) (let ((.def_111 (= .def_110 .def_104))) (let ((.def_112 (and .def_111 .def_100))) (let ((.def_113 (and .def_112 .def_87))) (let ((.def_114 (not .def_113))) (let ((.def_115 (and .def_114 .def_57))) (let ((.def_116 (and A16 A24))) (let ((.def_117 (not .def_116))) (let ((.def_118 (and A0 A9))) (let ((.def_119 (not .def_118))) (let ((.def_120 (= .def_119 .def_117))) (let ((.def_121 (not .def_120))) (let ((.def_122 (and A5 A10))) (let ((.def_123 (not A0))) (let ((.def_124 (or .def_123 .def_28))) (let ((.def_125 (not .def_124))) (let ((.def_126 (or .def_125 .def_122))) (let ((.def_127 (not .def_126))) (let ((.def_128 (or .def_127 .def_121))) (let ((.def_129 (= A9 .def_90))) (let ((.def_130 (not .def_129))) (let ((.def_131 (and .def_70 A10))) (let ((.def_132 (or .def_131 .def_130))) (let ((.def_133 (or .def_3 .def_31))) (let ((.def_134 (not .def_133))) (let ((.def_135 (and .def_51 .def_96))) (let ((.def_136 (or .def_135 .def_134))) (let ((.def_137 (not .def_136))) (let ((.def_138 (or .def_137 .def_132))) (let ((.def_139 (or .def_138 .def_128))) (let ((.def_140 (not .def_139))) (let ((.def_141 (and A22 A24))) (let ((.def_142 (not .def_141))) (let ((.def_143 (or .def_0 A17))) (let ((.def_144 (not .def_143))) (let ((.def_145 (= .def_144 .def_142))) (let ((.def_146 (not A18))) (let ((.def_147 (and .def_72 .def_146))) (let ((.def_148 (not .def_147))) (let ((.def_149 (or .def_41 .def_15))) (let ((.def_150 (or .def_149 .def_148))) (let ((.def_151 (and .def_150 .def_145))) (let ((.def_152 (= .def_36 A24))) (let ((.def_153 (not .def_152))) (let ((.def_154 (and .def_3 .def_70))) (let ((.def_155 (not .def_154))) (let ((.def_156 (and .def_155 .def_153))) (let ((.def_157 (not .def_156))) (let ((.def_158 (or .def_31 .def_31))) (let ((.def_159 (or A20 .def_21))) (let ((.def_160 (not .def_159))) (let ((.def_161 (= .def_160 .def_158))) (let ((.def_162 (or .def_161 .def_157))) (let ((.def_163 (and .def_162 .def_151))) (let ((.def_164 (and .def_163 .def_140))) (let ((.def_165 (or .def_3 A3))) (let ((.def_166 (or .def_28 .def_8))) (let ((.def_167 (and .def_166 .def_165))) (let ((.def_168 (or A21 A1))) (let ((.def_169 (not .def_168))) (let ((.def_170 (and A0 .def_7))) (let ((.def_171 (and .def_170 .def_169))) (let ((.def_172 (not .def_171))) (let ((.def_173 (or .def_172 .def_167))) (let ((.def_174 (or .def_21 .def_28))) (let ((.def_175 (not .def_174))) (let ((.def_176 (or .def_8 A1))) (let ((.def_177 (not .def_176))) (let ((.def_178 (= .def_177 .def_175))) (let ((.def_179 (not .def_178))) (let ((.def_180 (and .def_64 .def_50))) (let ((.def_181 (or A19 .def_31))) (let ((.def_182 (and .def_181 .def_180))) (let ((.def_183 (and .def_182 .def_179))) (let ((.def_184 (and .def_183 .def_173))) (let ((.def_185 (or A17 A19))) (let ((.def_186 (and .def_28 A10))) (let ((.def_187 (not .def_186))) (let ((.def_188 (or .def_187 .def_185))) (let ((.def_189 (and .def_3 .def_90))) (let ((.def_190 (= A0 A7))) (let ((.def_191 (and .def_190 .def_189))) (let ((.def_192 (or .def_191 .def_188))) (let ((.def_193 (= A1 A24))) (let ((.def_194 (or .def_72 A4))) (let ((.def_195 (not .def_194))) (let ((.def_196 (and .def_195 .def_193))) (let ((.def_197 (and .def_123 A11))) (let ((.def_198 (not .def_197))) (let ((.def_199 (= A1 .def_96))) (let ((.def_200 (not .def_199))) (let ((.def_201 (= .def_200 .def_198))) (let ((.def_202 (not .def_201))) (let ((.def_203 (= .def_202 .def_196))) (let ((.def_204 (not .def_203))) (let ((.def_205 (= .def_204 .def_192))) (let ((.def_206 (and .def_205 .def_184))) (let ((.def_207 (or .def_206 .def_164))) (let ((.def_208 (not .def_207))) (let ((.def_209 (or .def_208 .def_115))) .def_209)))))))))))))))))))))))))))))))))))))))))))))))))))))))))))))))))))))))))))))))))))))))))))))))))))))))))))))))))))))))))))))))))))))))))))))))))))))))))))))))))))))))))))))))))))))))))))))))))))))))))))))))))))
(check-sat)
